W  O  H 
 1.0000000000000000
     0.0000000000000000    5.1071500777999992    5.1071500777999992
     5.1071500777999992    0.0000000000000000    5.1071500777999992
     5.1071500777999992    5.1071500777999992    0.0000000000000000
 W   O   H  
   4  12  24
Cartesian
  6.3839375972499992  6.3839375972499992  6.3839375972499992
  3.8303625583499996  3.8303625583499996  6.3839375972499992
  3.8303625583499992  6.3839375972499992  3.8303625583499996
  6.3839375972499992  3.8303625583499992  3.8303625583499992
  9.5636492356882794  7.6607251166999992  7.6607251166999992
  3.2042259588117195  5.1071500778000001  5.1071500778000001
  5.7578009977117190  7.6607251166999992  7.6607251166999992
  7.0100741967882803  5.1071500777999992  5.1071500777999992
  7.6607251166999992  9.5636492356882794  7.6607251166999983
  5.1071500778000001  3.2042259588117195  5.1071500778000001
  7.6607251166999983  5.7578009977117182  7.6607251166999992
  5.1071500777999992  7.0100741967882803  5.1071500777999992
  7.6607251166999983  7.6607251166999983  9.5636492356882794
  5.1071500777999992  5.1071500777999992  3.2042259588117186
  7.6607251166999992  7.6607251166999992  5.7578009977117190
  5.1071500777999992  5.1071500777999992  7.0100741967882803
  6.3839375972499992  7.5892250156107988  5.1786501788891997
  6.3839375972499992  5.1786501788891997  7.5892250156107979
  3.8303625583499996  2.6250751399891996  5.1786501788891997
  3.8303625583499996  5.0356499767107987  7.5892250156107979
  3.8303625583499996  7.5892250156107979  5.0356499767107987
  3.8303625583499996  5.1786501788891997  2.6250751399892001
  6.3839375972499992  2.6250751399891996  5.0356499767107987
  6.3839375972499992  5.0356499767107987  2.6250751399892001
  5.1786501788891997  6.3839375972499992  7.5892250156107988
  7.5892250156107979  6.3839375972499992  5.1786501788891997
  5.1786501788891997  3.8303625583499992  2.6250751399892001
  7.5892250156107979  3.8303625583499996  5.0356499767107987
  5.0356499767107996  3.8303625583499996  7.5892250156107988
  2.6250751399892005  3.8303625583499996  5.1786501788891997
  5.0356499767107996  6.3839375972499992  2.6250751399892001
  2.6250751399891996  6.3839375972499992  5.0356499767107996
  7.5892250156107979  5.1786501788891997  6.3839375972499992
  5.1786501788891997  7.5892250156107988  6.3839375972500001
  2.6250751399892001  5.1786501788891997  3.8303625583499992
  5.0356499767107987  7.5892250156107988  3.8303625583499996
  7.5892250156107979  5.0356499767107987  3.8303625583499996
  5.1786501788891997  2.6250751399891996  3.8303625583499992
  2.6250751399892001  5.0356499767107996  6.3839375972500001
  5.0356499767107987  2.6250751399892001  6.3839375972499992
