Hydrogen tungsten oxide (0.7/1.6/5.2)
1.0
       10.2143001556         0.0000000000         0.0000000000
        0.0000000000        10.2143001556         0.0000000000
        0.0000000000         0.0000000000        10.2143001556
    W    O    H
   16   48   96
Direct
     0.000000000         0.000000000         0.000000000
     0.750000000         0.250000000         0.500000000
     0.250000000         0.750000000         0.500000000
     0.250000000         0.500000000         0.750000000
     0.750000000         0.500000000         0.250000000
     0.500000000         0.750000000         0.250000000
     0.500000000         0.250000000         0.750000000
     0.000000000         0.500000000         0.500000000
     0.750000000         0.750000000         0.000000000
     0.250000000         0.250000000         0.000000000
     0.250000000         0.000000000         0.250000000
     0.750000000         0.000000000         0.750000000
     0.500000000         0.000000000         0.500000000
     0.000000000         0.750000000         0.750000000
     0.000000000         0.250000000         0.250000000
     0.500000000         0.500000000         0.000000000
     0.311300000         0.125000000         0.125000000
     0.688700000         0.875000000         0.875000000
     0.438700000         0.125000000         0.625000000
     0.561300000         0.875000000         0.375000000
     0.938700000         0.625000000         0.625000000
     0.061300000         0.375000000         0.375000000
     0.811300000         0.625000000         0.125000000
     0.188700000         0.375000000         0.875000000
     0.125000000         0.311300000         0.125000000
     0.875000000         0.688700000         0.875000000
     0.625000000         0.438700000         0.125000000
     0.375000000         0.561300000         0.875000000
     0.625000000         0.938700000         0.625000000
     0.375000000         0.061300000         0.375000000
     0.125000000         0.811300000         0.625000000
     0.875000000         0.188700000         0.375000000
     0.125000000         0.125000000         0.311300000
     0.875000000         0.875000000         0.688700000
     0.125000000         0.625000000         0.438700000
     0.875000000         0.375000000         0.561300000
     0.625000000         0.625000000         0.938700000
     0.375000000         0.375000000         0.061300000
     0.625000000         0.125000000         0.811300000
     0.375000000         0.875000000         0.188700000
     0.875000000         0.561300000         0.375000000
     0.125000000         0.438700000         0.625000000
     0.375000000         0.188700000         0.875000000
     0.625000000         0.811300000         0.125000000
     0.188700000         0.875000000         0.375000000
     0.811300000         0.125000000         0.625000000
     0.561300000         0.375000000         0.875000000
     0.438700000         0.625000000         0.125000000
     0.875000000         0.375000000         0.188700000
     0.125000000         0.625000000         0.811300000
     0.375000000         0.875000000         0.561300000
     0.625000000         0.125000000         0.438700000
     0.311300000         0.625000000         0.625000000
     0.688700000         0.375000000         0.375000000
     0.938700000         0.125000000         0.125000000
     0.061300000         0.875000000         0.875000000
     0.125000000         0.125000000         0.938700000
     0.875000000         0.875000000         0.061300000
     0.625000000         0.625000000         0.311300000
     0.375000000         0.375000000         0.688700000
     0.875000000         0.061300000         0.875000000
     0.125000000         0.938700000         0.125000000
     0.375000000         0.688700000         0.375000000
     0.625000000         0.311300000         0.625000000
     0.000000000         0.118000000         0.882000000
     0.000000000         0.882000000         0.118000000
     0.750000000         0.132000000         0.382000000
     0.250000000         0.868000000         0.618000000
     0.250000000         0.618000000         0.868000000
     0.750000000         0.382000000         0.132000000
     0.500000000         0.632000000         0.368000000
     0.500000000         0.368000000         0.632000000
     0.882000000         0.000000000         0.118000000
     0.118000000         0.000000000         0.882000000
     0.382000000         0.750000000         0.132000000
     0.618000000         0.250000000         0.868000000
     0.868000000         0.250000000         0.618000000
     0.132000000         0.750000000         0.382000000
     0.368000000         0.500000000         0.632000000
     0.632000000         0.500000000         0.368000000
     0.118000000         0.882000000         0.000000000
     0.882000000         0.118000000         0.000000000
     0.132000000         0.382000000         0.750000000
     0.868000000         0.618000000         0.250000000
     0.618000000         0.868000000         0.250000000
     0.382000000         0.132000000         0.750000000
     0.632000000         0.368000000         0.500000000
     0.368000000         0.632000000         0.500000000
     0.000000000         0.618000000         0.382000000
     0.000000000         0.382000000         0.618000000
     0.750000000         0.632000000         0.882000000
     0.250000000         0.368000000         0.118000000
     0.250000000         0.118000000         0.368000000
     0.750000000         0.882000000         0.632000000
     0.500000000         0.132000000         0.868000000
     0.500000000         0.868000000         0.132000000
     0.882000000         0.500000000         0.618000000
     0.118000000         0.500000000         0.382000000
     0.382000000         0.250000000         0.632000000
     0.618000000         0.750000000         0.368000000
     0.868000000         0.750000000         0.118000000
     0.132000000         0.250000000         0.882000000
     0.368000000         0.000000000         0.132000000
     0.632000000         0.000000000         0.868000000
     0.118000000         0.382000000         0.500000000
     0.882000000         0.618000000         0.500000000
     0.132000000         0.882000000         0.250000000
     0.868000000         0.118000000         0.750000000
     0.618000000         0.368000000         0.750000000
     0.382000000         0.632000000         0.250000000
     0.632000000         0.868000000         0.000000000
     0.368000000         0.132000000         0.000000000
     0.500000000         0.118000000         0.382000000
     0.500000000         0.882000000         0.618000000
     0.250000000         0.132000000         0.882000000
     0.750000000         0.868000000         0.118000000
     0.750000000         0.618000000         0.368000000
     0.250000000         0.382000000         0.632000000
     0.000000000         0.632000000         0.868000000
     0.000000000         0.368000000         0.132000000
     0.382000000         0.000000000         0.618000000
     0.618000000         0.000000000         0.382000000
     0.882000000         0.750000000         0.632000000
     0.118000000         0.250000000         0.368000000
     0.368000000         0.250000000         0.118000000
     0.632000000         0.750000000         0.882000000
     0.868000000         0.500000000         0.132000000
     0.132000000         0.500000000         0.868000000
     0.618000000         0.882000000         0.500000000
     0.382000000         0.118000000         0.500000000
     0.632000000         0.382000000         0.250000000
     0.368000000         0.618000000         0.750000000
     0.118000000         0.868000000         0.750000000
     0.882000000         0.132000000         0.250000000
     0.132000000         0.368000000         0.000000000
     0.868000000         0.632000000         0.000000000
     0.500000000         0.618000000         0.882000000
     0.500000000         0.382000000         0.118000000
     0.250000000         0.632000000         0.382000000
     0.750000000         0.368000000         0.618000000
     0.750000000         0.118000000         0.868000000
     0.250000000         0.882000000         0.132000000
     0.000000000         0.132000000         0.368000000
     0.000000000         0.868000000         0.632000000
     0.382000000         0.500000000         0.118000000
     0.618000000         0.500000000         0.882000000
     0.882000000         0.250000000         0.132000000
     0.118000000         0.750000000         0.868000000
     0.368000000         0.750000000         0.618000000
     0.632000000         0.250000000         0.382000000
     0.868000000         0.000000000         0.632000000
     0.132000000         0.000000000         0.368000000
     0.618000000         0.382000000         0.000000000
     0.382000000         0.618000000         0.000000000
     0.632000000         0.882000000         0.750000000
     0.368000000         0.118000000         0.250000000
     0.118000000         0.368000000         0.250000000
     0.882000000         0.632000000         0.750000000
     0.132000000         0.868000000         0.500000000
     0.868000000         0.132000000         0.500000000
